6408.93
133 185 189 185 189 133 185 133 132 0 189 185 189 189 132 0 189 185 132 185 185 156 133 133 189 189 189 189 189 132 133 133 189 189 185 185 0 132 0 185 0 189 132 185 133 185 189 189 133 132 189 189 185 0 185 185 185 185 185 133 0 185 185 94 189 185 185 185 189 132 189 189 189 0 189 133 133 132 0 132 156 185 189 185 133 132 132 189 185 0 133 133 189 189 0 0 189 0 0 132 189 185 94 132 185 132 185 185 185 185 185 185 133 0 132 0 189 185 132 189 132 185 189 189 132 133 189 185 189 133 0 189 189 0 189 133 0 185 185 94 189 185 189 185 133 0 185 133 156 0 189 185 0 0 185 132 0 189 185 132 133 189 132 185 189 133 0 0 132 185 189 132 0 0 132 132 189 185 132 133 189 133 0 132 189 189 189 133 132 133 189 132 185 189 185 185 189 189 133 0 
